
Gurobi 9.5.1 (mac64[x86]) logging started Wed Jun  8 17:28:09 2022

Set parameter LogFile to value "/Users/keyvanmajd/Documents/GitHub/NNRepLayer_v2/demos/walking_example/repair_bound_constraint/repair_net/logs/opt_log_6_8_2022_17_27_35.log"
Gurobi Optimizer version 9.5.1 build v9.5.1rc2 (mac64[x86])
Thread count: 4 physical cores, 8 logical processors, using up to 8 threads
Optimize a model with 28012 rows, 17157 columns and 73068 nonzeros
Model fingerprint: 0xf021cf38
Model has 101 quadratic objective terms
Variable types: 7557 continuous, 9600 integer (9600 binary)
Coefficient statistics:
  Matrix range     [3e-03, 4e+01]
  Objective range  [2e-03, 4e-01]
  QObjective range [2e-02, 2e+00]
  Bounds range     [1e+00, 4e+01]
  RHS range        [2e-04, 4e+01]
Presolve removed 16776 rows and 6688 columns
Presolve time: 0.22s
Presolved: 11236 rows, 10469 columns, 46116 nonzeros
Presolved model has 101 quadratic objective terms
Variable types: 7269 continuous, 3200 integer (3200 binary)
Found heuristic solution: objective 1.8370344
Root relaxation presolve removed 3200 rows and 3200 columns
Root relaxation presolved: 8036 rows, 7269 columns, 39716 nonzeros
Root relaxation presolved model has 101 quadratic objective terms


Root relaxation: objective 0.000000e+00, 9576 iterations, 0.89 seconds (1.28 work units)

    Nodes    |    Current Node    |     Objective Bounds      |     Work
 Expl Unexpl |  Obj  Depth IntInf | Incumbent    BestBd   Gap | It/Node Time

     0     0    0.00000    0 1131    1.83703    0.00000   100%     -    2s
H    0     0                       1.8245787    0.00000   100%     -    2s
H    0     0                       1.8148632    0.00000   100%     -    6s
     0     0    0.00000    0  793    1.81486    0.00000   100%     -    6s
H    0     0                       1.2025394    0.00000   100%     -    9s
     0     0    0.00000    0  787    1.20254    0.00000   100%     -   10s
     0     0    0.00000    0  766    1.20254    0.00000   100%     -   10s
     0     0    0.00000    0  768    1.20254    0.00000   100%     -   10s
     0     0    0.00000    0  757    1.20254    0.00000   100%     -   12s
     0     0    0.00000    0  750    1.20254    0.00000   100%     -   12s
     0     0    0.00000    0  752    1.20254    0.00000   100%     -   13s
H    0     0                       1.0291784    0.00000   100%     -   18s
H    0     0                       1.0262915    0.00000   100%     -   18s
H    0     2                       0.9903145    0.00000   100%     -   18s
     0     2    0.00000    0  752    0.99031    0.00000   100%     -   18s
     1     4    0.56005    1 1301    0.99031    0.00000   100%  4139   20s
H   30    35                       0.9861222    0.00000   100%   379   22s
H   31    35                       0.9716558    0.00000   100%   368   22s
H   99   104                       0.9602654    0.00000   100%   134   36s
H  100   104                       0.9332020    0.00000   100%   132   36s
H  102   104                       0.8484733    0.00000   100%   130   36s
   491   516    0.66918  128 1146    0.84847    0.00000   100%  42.8   40s
  1876  1901    0.67790  439  886    0.84847    0.00000   100%  37.5   45s
  2772  2786    0.69773  653  758    0.84847    0.00000   100%  50.7   52s
  3101  3152    0.73041  729  689    0.84847    0.00000   100%  76.5   55s
  4030  4137    0.73766 1051  439    0.84847    0.00000   100%  73.1   60s
  4574  4557    0.74802 1143  441    0.84847    0.00000   100%  69.5   66s

Cutting planes:
  Gomory: 1
  Implied bound: 6
  MIR: 342
  Flow cover: 592

Explored 4636 nodes (343214 simplex iterations) in 66.47 seconds (89.82 work units)
Thread count was 8 (of 8 available processors)

Solution count 10: 0.848473 0.933202 0.960265 ... 1.81486

Solve interrupted
Best objective 8.484732659923e-01, best bound 2.477284581914e-06, gap 99.9997%
